
Gurobi 13.0.1 (linux64) logging started Sat Mar 21 20:07:05 2026

Set parameter LogFile to value "logs/50B_6F_robust_gamma_0d25_theta_0d05199999999999999_2026-03-21_20h06m51s.log"
Gurobi Optimizer version 13.0.1 build v13.0.1rc0 (linux64 - "Linux Mint 22")

CPU model: 12th Gen Intel(R) Core(TM) i7-12700, instruction set [SSE2|AVX|AVX2]
Thread count: 20 physical cores, 20 logical processors, using up to 20 threads

Non-default parameters:
TimeLimit  3600
SoftMemLimit  12

Optimize a model with 60351 rows, 780571 columns and 2406497 nonzeros (Max)
Model fingerprint: 0x7d8832a4
Model has 735061 linear objective coefficients
Variable types: 15571 continuous, 765000 integer (765000 binary)
Coefficient statistics:
  Matrix range     [3e-05, 1e+05]
  Objective range  [1e+00, 3e+03]
  Bounds range     [1e+00, 1e+05]
  RHS range        [8e-03, 1e+05]

Presolve removed 31036 rows and 564142 columns
Presolve time: 1.44s
Presolved: 29315 rows, 216429 columns, 690965 nonzeros
Variable types: 7521 continuous, 208908 integer (208908 binary)
Found heuristic solution: objective -3.92159e+08
Found heuristic solution: objective -3.87980e+08
Deterministic concurrent LP optimizer: primal simplex, dual simplex, and barrier
Showing barrier log only...

Root barrier log...

Ordering time: 0.41s

Barrier statistics:
 AA' NZ     : 4.006e+05
 Factor NZ  : 3.152e+06 (roughly 120 MB of memory)
 Factor Ops : 6.047e+08 (less than 1 second per iteration)
 Threads    : 18

                  Objective                Residual
Iter       Primal          Dual         Primal    Dual     Compl     Time
   0  -7.10954955e+11  1.05054966e+09  9.82e+06 5.12e+02  9.67e+06     3s
   1  -6.28936016e+10  1.72682102e+09  8.71e+05 5.70e+02  8.73e+05     3s
   2  -2.19580680e+09  1.40920554e+09  3.09e+04 1.41e+02  3.43e+04     3s
   3  -3.14479273e+08  1.03521578e+09  5.65e+03 2.07e+01  7.40e+03     3s
   4   4.55383559e+07  6.81480166e+08  8.23e+02 8.14e+00  1.99e+03     3s
   5   7.99624948e+07  2.29403879e+08  3.48e+02 1.26e+00  5.01e+02     3s
   6   9.63146467e+07  1.62098100e+08  1.32e+02 5.33e-01  2.07e+02     3s
   7   1.00816688e+08  1.27513939e+08  7.50e+01 2.88e-01  9.12e+01     3s
   8   1.03531282e+08  1.21299886e+08  3.95e+01 1.88e-01  5.60e+01     3s
   9   1.05347873e+08  1.14687048e+08  1.60e+01 9.51e-02  2.70e+01     3s
  10   1.05696415e+08  1.10697144e+08  1.19e+01 3.64e-02  1.49e+01     3s
  11   1.06224500e+08  1.08980796e+08  5.38e+00 1.68e-02  7.46e+00     3s
  12   1.06421016e+08  1.08149106e+08  3.28e+00 8.99e-03  4.37e+00     3s
  13   1.06444118e+08  1.07884291e+08  3.06e+00 6.90e-03  3.59e+00     3s
  14   1.06602573e+08  1.07414319e+08  1.64e+00 3.34e-03  1.90e+00     3s
  15   1.06759130e+08  1.07164644e+08  6.07e-01 1.45e-03  9.17e-01     4s
  16   1.06876401e+08  1.07056127e+08  1.86e-01 6.99e-04  4.04e-01     4s
  17   1.06918912e+08  1.06982010e+08  4.82e-02 2.36e-04  1.42e-01     4s
  18   1.06929002e+08  1.06965323e+08  2.19e-02 1.44e-04  8.15e-02     4s
  19   1.06934862e+08  1.06954287e+08  8.35e-03 8.27e-05  4.36e-02     4s
  20   1.06936430e+08  1.06949232e+08  5.49e-03 5.33e-05  2.87e-02     4s
  21   1.06936993e+08  1.06944981e+08  4.42e-03 2.92e-05  1.79e-02     4s
  22   1.06937696e+08  1.06944278e+08  3.13e-03 2.54e-05  1.48e-02     4s
  23   1.06938086e+08  1.06944115e+08  2.40e-03 3.54e-05  1.35e-02     4s
  24   1.06938663e+08  1.06942994e+08  1.33e-03 2.59e-05  9.72e-03     4s
  25   1.06938914e+08  1.06941913e+08  8.65e-04 1.29e-05  6.73e-03     4s
  26   1.06939111e+08  1.06941141e+08  5.06e-04 8.89e-06  4.55e-03     4s
  27   1.06939201e+08  1.06940501e+08  3.37e-04 5.47e-06  2.92e-03     4s
  28   1.06939282e+08  1.06940140e+08  2.03e-04 3.62e-06  1.92e-03     4s
  29   1.06939294e+08  1.06939934e+08  1.81e-04 2.58e-06  1.44e-03     4s
  30   1.06939334e+08  1.06939744e+08  1.13e-04 1.61e-06  9.20e-04     4s
  31   1.06939364e+08  1.06939614e+08  6.55e-05 9.63e-07  5.61e-04     5s
  32   1.06939376e+08  1.06939585e+08  4.59e-05 8.20e-07  4.69e-04     5s
  33   1.06939387e+08  1.06939490e+08  2.96e-05 3.48e-07  2.30e-04     5s
  34   1.06939399e+08  1.06939458e+08  1.66e-05 1.94e-07  1.31e-04     5s
  35   1.06939405e+08  1.06939442e+08  1.01e-05 1.21e-07  8.31e-05     5s
  36   1.06939407e+08  1.06939442e+08  8.64e-06 1.19e-07  7.84e-05     5s
  37   1.06939407e+08  1.06939439e+08  8.10e-06 1.05e-07  7.04e-05     5s
  38   1.06939409e+08  1.06939434e+08  6.23e-06 8.14e-08  5.52e-05     5s
  39   1.06939413e+08  1.06939425e+08  2.74e-06 4.18e-08  2.83e-05     5s
  40   1.06939413e+08  1.06939425e+08  2.45e-06 4.09e-08  2.71e-05     5s
  41   1.06939414e+08  1.06939420e+08  1.21e-06 2.03e-08  1.40e-05     5s
  42   1.06939415e+08  1.06939419e+08  5.89e-07 1.20e-08  8.35e-06     5s
  43   1.06939415e+08  1.06939417e+08  3.61e-07 6.57e-09  4.91e-06     5s
  44   1.06939415e+08  1.06939417e+08  2.80e-07 3.90e-09  3.19e-06     5s
  45   1.06939416e+08  1.06939416e+08  1.32e-07 1.60e-09  1.41e-06     5s
  46   1.06939416e+08  1.06939416e+08  1.22e-07 7.60e-10  8.93e-07     5s

Barrier solved model in 46 iterations and 5.42 seconds (6.57 work units)
Optimal objective 1.06939416e+08


Root crossover log...

   13527 DPushes remaining with DInf 0.0000000e+00                 5s
       0 DPushes remaining with DInf 0.0000000e+00                 6s

    7974 PPushes remaining with PInf 7.4162030e-02                 6s
       0 PPushes remaining with PInf 0.0000000e+00                 6s

  Push phase complete: Pinf 0.0000000e+00, Dinf 3.8873804e+04      6s


Root simplex log...

Iteration    Objective       Primal Inf.    Dual Inf.      Time
   20142    1.0693942e+08   0.000000e+00   3.887380e+04      6s
   20811    1.0693942e+08   0.000000e+00   0.000000e+00      6s
Crossover time: 0.99 seconds (0.66 work units)
Concurrent spin time: 0.22s

Solved with barrier

Root relaxation: objective 1.069394e+08, 20811 iterations, 4.78 seconds (4.27 work units)

    Nodes    |    Current Node    |     Objective Bounds      |     Work
 Expl Unexpl |  Obj  Depth IntInf | Incumbent    BestBd   Gap | It/Node Time

     0     0 1.0694e+08    0 4283 -3.880e+08 1.0694e+08   128%     -    7s
H    0     0                    -2.01515e+08 1.0694e+08   153%     -    9s
H    0     0                    -8.93038e+07 1.0694e+08   220%     -   10s
H    0     0                    -4.25630e+07 1.0694e+08   351%     -   12s
H    0     0                    -2.72169e+07 1.0694e+08   493%     -   15s
H    0     0                    -2.62611e+07 1.0694e+08   507%     -   17s
H    0     0                    -1.09090e+07 1.0694e+08  1080%     -   17s
H    0     0                    3082703.7734 1.0694e+08  3369%     -   17s
H    0     0                    2.130805e+07 1.0694e+08   402%     -   20s
H    0     0                    3.746264e+07 1.0694e+08   185%     -   20s
H    0     0                    3.750949e+07 1.0694e+08   185%     -   20s
H    0     0                    8.098775e+07 1.0694e+08  32.0%     -   22s
H    0     0                    8.103913e+07 1.0694e+08  32.0%     -   22s
     0     0 1.0694e+08    0 4045 8.1039e+07 1.0694e+08  32.0%     -   29s
H    0     0                    8.276573e+07 1.0694e+08  29.2%     -   36s
H    0     0                    8.344708e+07 1.0694e+08  28.2%     -   47s
H    0     0                    8.465873e+07 1.0694e+08  26.3%     -   50s
H    0     0                    8.476303e+07 1.0694e+08  26.2%     -   50s
H    0     0                    8.477399e+07 1.0694e+08  26.1%     -   50s
H    0     0                    8.493194e+07 1.0694e+08  25.9%     -   51s
H    0     0                    8.506606e+07 1.0694e+08  25.7%     -   51s
H    0     0                    8.506915e+07 1.0694e+08  25.7%     -   57s
H    0     0                    8.527212e+07 1.0694e+08  25.4%     -   57s
     0     0 1.0694e+08    0 4195 8.5272e+07 1.0694e+08  25.4%     -   58s
     0     0 1.0694e+08    0 4430 8.5272e+07 1.0694e+08  25.4%     -   66s
     0     0 1.0694e+08    0 4583 8.5272e+07 1.0694e+08  25.4%     -   72s
     0     0 1.0694e+08    0 4606 8.5272e+07 1.0694e+08  25.4%     -   73s
     0     0 1.0694e+08    0 5461 8.5272e+07 1.0694e+08  25.4%     -   85s
     0     0 1.0694e+08    0 5468 8.5272e+07 1.0694e+08  25.4%     -   87s
     0     0 1.0694e+08    0 6376 8.5272e+07 1.0694e+08  25.4%     -   94s
     0     0 1.0694e+08    0 6820 8.5272e+07 1.0694e+08  25.4%     -   96s
     0     0 1.0694e+08    0 6415 8.5272e+07 1.0694e+08  25.4%     -  103s
     0     0 1.0694e+08    0 6361 8.5272e+07 1.0694e+08  25.4%     -  105s
     0     0 1.0694e+08    0 6291 8.5272e+07 1.0694e+08  25.4%     -  111s
     0     0 1.0694e+08    0 6291 8.5272e+07 1.0694e+08  25.4%     -  116s
     0     0 1.0694e+08    0 5217 8.5272e+07 1.0694e+08  25.4%     -  119s
     0     2 1.0694e+08    0 5076 8.5272e+07 1.0694e+08  25.4%     -  164s
     1     4 1.0694e+08    1 5239 8.5272e+07 1.0694e+08  25.4%   256  168s
     3     8 1.0694e+08    2 5839 8.5272e+07 1.0694e+08  25.4%  1286  178s
     7    16 1.0694e+08    3 5952 8.5272e+07 1.0694e+08  25.4%  2642  195s
H   12    16                    9.260006e+07 1.0694e+08  15.5%  2434  195s
H   15    30                    9.265741e+07 1.0694e+08  15.4%  2674  260s
H   20    30                    9.328381e+07 1.0694e+08  14.6%  2982  260s
H   29    50                    9.328444e+07 1.0694e+08  14.6%  4344  304s
H   32    50                    9.328474e+07 1.0694e+08  14.6%  4159  304s
H   36    50                    9.366935e+07 1.0694e+08  14.2%  3993  304s
H   39    50                    9.392198e+07 1.0694e+08  13.9%  3855  304s
H   49   130                    9.393205e+07 1.0694e+08  13.8%  3698  411s
H   53   130                    1.006693e+08 1.0694e+08  6.23%  3550  411s
H   59   130                    1.016119e+08 1.0694e+08  5.24%  3319  411s
H  129   150                    1.024256e+08 1.0694e+08  4.41%  2217  516s
H  130   150                    1.024906e+08 1.0694e+08  4.34%  2206  516s
H  132   150                    1.028251e+08 1.0694e+08  4.00%  2193  516s
   149   384 1.0694e+08    9 5735 1.0283e+08 1.0694e+08  4.00%  2290  818s
H  383   553                    1.055427e+08 1.0694e+08  1.32%  1973 1286s
H  390   553                    1.061404e+08 1.0694e+08  0.75%  2015 1286s
H  503   553                    1.061610e+08 1.0694e+08  0.73%  2251 1286s
   552  1161 1.0694e+08   21 5871 1.0616e+08 1.0694e+08  0.73%  2387 2302s
H  606  1161                    1.061745e+08 1.0694e+08  0.72%  2351 2302s
H  791  1161                    1.061966e+08 1.0694e+08  0.70%  2268 2302s
  1160  2044 1.0694e+08   43 4643 1.0620e+08 1.0694e+08  0.70%  2146 3600s
H 1213  2044                    1.062251e+08 1.0694e+08  0.67%  2116 3600s
H 1667  2044                    1.062254e+08 1.0694e+08  0.67%  2029 3600s

Cutting planes:
  Gomory: 3
  MIR: 49
  Flow cover: 147
  RLT: 3246
  Relax-and-lift: 28

Explored 2043 nodes (4072732 simplex iterations) in 3600.11 seconds (2370.18 work units)
Thread count was 20 (of 20 available processors)

Solution count 10: 1.06225e+08 1.06225e+08 1.06197e+08 ... 1.02426e+08

Time limit reached
Best objective 1.062254451129e+08, best bound 1.069385216892e+08, gap 0.6713%
